NAME: berlin52-12-1
TYPE: TSP
COMMENT: min_cost = 3118.39
DIMENSION: 12
EDGE_WEIGHT_TYPE: EUC_2D
NODE_COORD_SECTION
1 720 635
2 1605 620
3 845 655
4 1150 1160
5 795 645
6 345 750
7 420 555
8 700 580
9 835 625
10 1220 580
11 830 610
12 875 920
EOF
